data/easy_9.dzn
num_nodi = 6;
ufficio_postale = 3;
dim_borsa = 96;
max_step = 12;
elenco_lettere = [16, 5, 0, 0, 0, 0];
distanze = [|0, 1, 17, 24, 2, 4
|7, 0, 17, 5, 25, 21
|9, 6, 0, 7, 3, 16
|4, 24, 25, 0, 6, 1
|12, 15, 8, 13, 0, 9
|20, 15, 23, 22, 5, 0
|];
