data/easy_9.lp
node(1..6).

ufficio_postale(3).

dim_borsa(96).

time(1..12).

lettere(1,16).
lettere(2,5).
lettere(3,0).
lettere(4,0).
lettere(5,0).
lettere(6,0).

costo_arco(1, 1, 0).
costo_arco(1, 2, 1).
costo_arco(1, 3, 17).
costo_arco(1, 4, 24).
costo_arco(1, 5, 2).
costo_arco(1, 6, 4).

costo_arco(2, 1, 7).
costo_arco(2, 2, 0).
costo_arco(2, 3, 17).
costo_arco(2, 4, 5).
costo_arco(2, 5, 25).
costo_arco(2, 6, 21).

costo_arco(3, 1, 9).
costo_arco(3, 2, 6).
costo_arco(3, 3, 0).
costo_arco(3, 4, 7).
costo_arco(3, 5, 3).
costo_arco(3, 6, 16).

costo_arco(4, 1, 4).
costo_arco(4, 2, 24).
costo_arco(4, 3, 25).
costo_arco(4, 4, 0).
costo_arco(4, 5, 6).
costo_arco(4, 6, 1).

costo_arco(5, 1, 12).
costo_arco(5, 2, 15).
costo_arco(5, 3, 8).
costo_arco(5, 4, 13).
costo_arco(5, 5, 0).
costo_arco(5, 6, 9).

costo_arco(6, 1, 20).
costo_arco(6, 2, 15).
costo_arco(6, 3, 23).
costo_arco(6, 4, 22).
costo_arco(6, 5, 5).
costo_arco(6, 6, 0).

